GeneratedTests/Random_8/Random_8_15.tsp
NAME: Random_8_15
TYPE: TSP
DIMENSION: 8
EDGE_WEIGHT_TYPE: EUC_2D
NODE_COORD_SECTION
1 18.508404 22.570892
2 11.594042 5.156609
3 3.4200954 23.607315
4 17.893711 12.206598
5 16.562138 6.257977
6 1.1637068 20.448664
7 11.752834 23.787941
8 16.342693 14.93766
EOF
