GeneratedTests/Random_8/Random_8_15.txt
NAME: Random_8_15
TYPE: TSP
DIMENSION: 8
EDGE_WEIGHT_TYPE: EUC_2D
NODE_COORD_SECTION
1 11.004951 1.6499777
2 7.29471 0.7403712
3 4.464236 23.989096
4 6.007546 9.572744
5 2.218227 19.309204
6 13.057621 10.847629
7 0.023390293 11.987272
8 17.174795 4.5562606
EOF
